DIMACS2
20 154 137 8 134 103 247 21 69 48 218 40 38 254 52 78 159 248 74 190 171
p edge 320 320
e 0 294 10.0
e 1 104 1.0
e 2 87 3.0
e 3 234 15.0
e 4 285 1.0
e 5 163 1.0
e 6 214 1.0
e 7 0 6.0
e 8 283 42.0
e 9 167 3.0
e 10 247 2.0
e 11 305 8.0
e 12 81 1.0
e 13 46 1.0
e 14 220 1.0
e 15 215 1.0
e 16 123 1.0
e 17 301 1.0
e 18 251 2.0
e 19 74 25.0
e 20 204 1.0
e 21 3 22.0
e 22 178 1.0
e 23 8 48.0
e 24 36 1.0
e 25 141 1.0
e 26 240 1.0
e 27 244 2.0
e 28 203 1.0
e 29 203 1.0
e 30 145 1.0
e 31 40 4.0
e 32 82 5.0
e 33 52 34.0
e 34 186 1.0
e 35 284 1.0
e 36 133 1.0
e 37 146 1.0
e 38 306 37.0
e 39 66 1.0
e 40 33 27.0
e 41 215 1.0
e 42 46 1.0
e 43 91 1.0
e 44 209 2.0
e 45 249 1.0
e 46 39 2.0
e 47 51 1.0
e 48 256 22.0
e 49 145 1.0
e 50 250 1.0
e 51 244 4.0
e 52 251 7.0
e 53 254 5.0
e 54 124 2.0
e 55 257 1.0
e 56 2 4.0
e 57 297 1.0
e 58 231 1.0
e 59 104 5.0
e 60 286 1.0
e 61 6 1.0
e 62 131 1.0
e 63 279 3.0
e 64 95 1.0
e 65 41 1.0
e 66 74 29.0
e 67 205 1.0
e 68 42 1.0
e 69 226 32.0
e 70 180 1.0
e 71 57 1.0
e 72 190 18.0
e 73 2 4.0
e 74 254 46.0
e 75 66 2.0
e 76 249 1.0
e 77 4 1.0
e 78 244 28.0
e 79 211 1.0
e 80 276 1.0
e 81 224 1.0
e 82 182 3.0
e 83 177 1.0
e 84 236 1.0
e 85 306 1.0
e 86 96 12.0
e 87 82 1.0
e 88 115 1.0
e 89 268 1.0
e 90 138 2.0
e 91 205 1.0
e 92 23 11.0
e 93 311 2.0
e 94 300 2.0
e 95 259 1.0
e 96 118 9.0
e 97 256 10.0
e 98 153 2.0
e 99 76 3.0
e 100 137 10.0
e 101 302 1.0
e 102 21 5.0
e 103 254 31.0
e 104 106 1.0
e 105 96 11.0
e 106 239 4.0
e 107 54 1.0
e 108 142 1.0
e 109 158 2.0
e 110 271 1.0
e 111 308 1.0
e 112 262 1.0
e 113 38 16.0
e 114 160 1.0
e 115 176 1.0
e 116 280 4.0
e 117 251 1.0
e 118 130 2.0
e 119 4 1.0
e 120 30 1.0
e 121 238 1.0
e 122 102 1.0
e 123 27 4.0
e 124 189 2.0
e 125 100 2.0
e 126 79 1.0
e 127 221 1.0
e 128 295 1.0
e 129 219 2.0
e 130 93 6.0
e 131 222 1.0
e 132 119 1.0
e 133 89 1.0
e 134 113 16.0
e 135 294 1.0
e 136 121 1.0
e 137 96 18.0
e 138 105 1.0
e 139 135 1.0
e 140 262 1.0
e 141 281 1.0
e 142 292 1.0
e 143 131 1.0
e 144 212 1.0
e 145 34 1.0
e 146 123 1.0
e 147 88 1.0
e 148 292 1.0
e 149 298 1.0
e 150 247 8.0
e 151 240 1.0
e 152 24 1.0
e 153 69 9.0
e 154 271 31.0
e 155 47 1.0
e 156 283 1.0
e 157 259 1.0
e 158 255 2.0
e 159 123 20.0
e 160 31 3.0
e 161 312 2.0
e 162 30 1.0
e 163 277 1.0
e 164 196 2.0
e 165 296 1.0
e 166 157 1.0
e 167 55 5.0
e 168 217 1.0
e 169 41 1.0
e 170 147 1.0
e 171 74 22.0
e 172 94 1.0
e 173 180 1.0
e 174 205 1.0
e 175 268 5.0
e 176 198 1.0
e 177 84 1.0
e 178 284 1.0
e 179 20 1.0
e 180 214 1.0
e 181 13 1.0
e 182 296 1.0
e 183 15 1.0
e 184 77 1.0
e 185 35 1.0
e 186 172 1.0
e 187 159 29.0
e 188 220 1.0
e 189 317 1.0
e 190 278 33.0
e 191 141 1.0
e 192 12 1.0
e 193 195 1.0
e 194 145 1.0
e 195 281 1.0
e 196 136 2.0
e 197 135 2.0
e 198 105 3.0
e 199 62 1.0
e 200 198 1.0
e 201 202 1.0
e 202 225 1.0
e 203 146 1.0
e 204 25 1.0
e 205 197 2.0
e 206 186 1.0
e 207 7 3.0
e 208 115 1.0
e 209 212 9.0
e 210 250 1.0
e 211 157 1.0
e 212 223 11.0
e 213 268 4.0
e 214 251 5.0
e 215 227 1.0
e 216 98 3.0
e 217 236 1.0
e 218 258 43.0
e 219 44 1.0
e 220 161 1.0
e 221 58 1.0
e 222 265 1.0
e 223 48 15.0
e 224 312 4.0
e 225 58 2.0
e 226 300 2.0
e 227 299 1.0
e 228 196 1.0
e 229 297 1.0
e 230 127 1.0
e 231 242 1.0
e 232 54 5.0
e 233 210 1.0
e 234 232 11.0
e 235 163 1.0
e 236 94 1.0
e 237 252 1.0
e 238 192 1.0
e 239 72 10.0
e 240 106 1.0
e 241 248 32.0
e 242 121 1.0
e 243 106 1.0
e 244 17 1.0
e 245 42 1.0
e 246 70 1.0
e 247 229 19.0
e 248 0 47.0
e 249 209 4.0
e 250 288 1.0
e 251 184 4.0
e 252 84 1.0
e 253 145 1.0
e 254 297 9.0
e 255 51 1.0
e 256 59 1.0
e 257 194 1.0
e 258 89 3.0
e 259 243 1.0
e 260 7 1.0
e 261 273 1.0
e 262 43 1.0
e 263 52 5.0
e 264 183 1.0
e 265 140 1.0
e 266 232 3.0
e 267 182 5.0
e 268 52 40.0
e 269 249 4.0
e 270 93 2.0
e 271 214 5.0
e 272 0 11.0
e 273 16 1.0
e 274 37 2.0
e 275 212 7.0
e 276 288 1.0
e 277 191 1.0
e 278 32 9.0
e 279 100 10.0
e 280 150 3.0
e 281 94 1.0
e 282 24 1.0
e 283 167 8.0
e 284 274 1.0
e 285 156 6.0
e 286 316 1.0
e 287 1 1.0
e 288 242 1.0
e 289 174 1.0
e 290 136 1.0
e 291 136 1.0
e 292 286 1.0
e 293 292 1.0
e 294 196 5.0
e 295 238 1.0
e 296 276 1.0
e 297 90 1.0
e 298 108 1.0
e 299 199 1.0
e 300 272 1.0
e 301 117 1.0
e 302 301 1.0
e 303 78 31.0
e 304 38 25.0
e 305 102 11.0
e 306 127 1.0
e 307 278 6.0
e 308 126 1.0
e 309 243 1.0
e 310 168 1.0
e 311 246 1.0
e 312 275 3.0
e 313 274 1.0
e 314 129 2.0
e 315 116 1.0
e 316 261 1.0
e 317 194 1.0
e 318 283 10.0
e 319 18 2.0
